p wcnf 200 300 301 
1 -62 25 0 
1 188 -175 0 
1 199 171 0 
1 -31 181 0 
1 99 -47 0 
1 181 -92 0 
1 55 -133 0 
1 154 -51 0 
1 -118 -26 0 
1 -30 65 0 
1 15 59 0 
1 176 -40 0 
1 -126 98 0 
1 154 -9 0 
1 166 59 0 
1 -4 72 0 
1 -74 -124 0 
1 25 -70 0 
1 164 77 0 
1 -37 134 0 
1 126 38 0 
1 131 120 0 
1 -80 76 0 
1 -151 128 0 
1 179 176 0 
1 -54 2 0 
1 -7 44 0 
1 174 119 0 
1 54 166 0 
1 154 -136 0 
1 -31 58 0 
1 156 -1 0 
1 114 -103 0 
1 165 -22 0 
1 -59 -158 0 
1 7 -129 0 
1 74 -121 0 
1 -38 -59 0 
1 -79 81 0 
1 32 -99 0 
1 -193 -36 0 
1 -145 43 0 
1 192 -21 0 
1 155 -93 0 
1 -9 120 0 
1 -69 -141 0 
1 14 -46 0 
1 67 109 0 
1 141 65 0 
1 139 52 0 
1 190 -32 0 
1 -173 -43 0 
1 13 167 0 
1 -148 -182 0 
1 31 176 0 
1 172 -92 0 
1 -6 31 0 
1 163 123 0 
1 -139 -33 0 
1 -107 173 0 
1 -157 -60 0 
1 110 11 0 
1 48 115 0 
1 -161 -149 0 
1 92 132 0 
1 -48 -163 0 
1 37 -49 0 
1 175 -101 0 
1 -109 59 0 
1 157 -99 0 
1 -29 -114 0 
1 -92 -103 0 
1 -129 -107 0 
1 -143 63 0 
1 -160 154 0 
1 164 -35 0 
1 77 169 0 
1 -136 178 0 
1 -116 -157 0 
1 12 -5 0 
1 99 55 0 
1 173 176 0 
1 2 -55 0 
1 60 -14 0 
1 107 148 0 
1 -7 -200 0 
1 -125 168 0 
1 121 159 0 
1 -32 -69 0 
1 41 137 0 
1 89 -9 0 
1 72 131 0 
1 -6 118 0 
1 121 106 0 
1 -152 -68 0 
1 -60 -177 0 
1 167 166 0 
1 -177 13 0 
1 45 -17 0 
1 166 34 0 
1 37 19 0 
1 -182 153 0 
1 48 -137 0 
1 -117 67 0 
1 -62 160 0 
1 85 -181 0 
1 -96 -13 0 
1 -93 132 0 
1 -23 70 0 
1 61 27 0 
1 -96 38 0 
1 120 -38 0 
1 -35 -51 0 
1 -49 -96 0 
1 158 -125 0 
1 139 47 0 
1 158 161 0 
1 72 -186 0 
1 -137 -177 0 
1 51 -150 0 
1 -168 52 0 
1 -193 43 0 
1 -87 -170 0 
1 -28 -92 0 
1 -1 174 0 
1 102 127 0 
1 -88 -176 0 
1 -29 136 0 
1 71 51 0 
1 -152 -82 0 
1 -150 -187 0 
1 81 -154 0 
1 112 -1 0 
1 -5 75 0 
1 134 -200 0 
1 84 198 0 
1 -168 -32 0 
1 -141 35 0 
1 -126 -146 0 
1 6 115 0 
1 80 45 0 
1 -22 192 0 
1 181 175 0 
1 -194 75 0 
1 -151 162 0 
1 13 118 0 
1 -181 2 0 
1 133 101 0 
1 -16 38 0 
1 198 30 0 
1 181 90 0 
1 192 -105 0 
1 -177 -61 0 
1 -5 67 0 
1 -38 82 0 
1 189 54 0 
1 -25 10 0 
1 -12 8 0 
1 160 -62 0 
1 -49 -90 0 
1 -73 174 0 
1 -161 65 0 
1 67 -27 0 
1 -178 -35 0 
1 -101 77 0 
1 -130 42 0 
1 48 -177 0 
1 74 -200 0 
1 88 -187 0 
1 -101 -23 0 
1 99 161 0 
1 133 -34 0 
1 111 171 0 
1 152 4 0 
1 132 103 0 
1 144 -34 0 
1 110 53 0 
1 78 -139 0 
1 -99 93 0 
1 103 39 0 
1 -92 93 0 
1 -200 123 0 
1 -174 -160 0 
1 70 -180 0 
1 -45 19 0 
1 -168 -76 0 
1 -175 -88 0 
1 -126 -195 0 
1 88 90 0 
1 -52 47 0 
1 -27 129 0 
1 181 -84 0 
1 -69 169 0 
1 -54 -123 0 
1 81 -132 0 
1 68 164 0 
1 78 101 0 
1 34 -121 0 
1 60 -124 0 
1 137 36 0 
1 174 -164 0 
1 185 -143 0 
1 61 -128 0 
1 1 -24 0 
1 47 -141 0 
1 -180 -15 0 
1 -86 24 0 
1 -52 70 0 
1 -80 106 0 
1 171 75 0 
1 -156 49 0 
1 19 48 0 
1 -9 -200 0 
1 -165 66 0 
1 91 96 0 
1 130 36 0 
1 196 22 0 
1 -60 -54 0 
1 189 -30 0 
1 -48 -179 0 
1 171 -192 0 
1 196 118 0 
1 155 55 0 
1 199 -88 0 
1 -172 130 0 
1 102 18 0 
1 41 -38 0 
1 -37 -158 0 
1 147 -21 0 
1 -81 -53 0 
1 34 -129 0 
1 -112 36 0 
1 -129 185 0 
1 120 -148 0 
1 -16 129 0 
1 86 -129 0 
1 -30 -59 0 
1 -105 -10 0 
1 60 -90 0 
1 162 95 0 
1 -104 -35 0 
1 -134 182 0 
1 23 36 0 
1 -2 -10 0 
1 145 -65 0 
1 -61 105 0 
1 -24 187 0 
1 -42 -70 0 
1 133 141 0 
1 -96 8 0 
1 106 151 0 
1 -180 107 0 
1 50 -149 0 
1 -69 -129 0 
1 103 30 0 
1 -197 -199 0 
1 -105 -9 0 
1 -20 -145 0 
1 -172 -169 0 
1 59 -94 0 
1 -142 -107 0 
1 -169 -166 0 
1 -187 -12 0 
1 111 181 0 
1 84 -186 0 
1 193 -19 0 
1 -16 166 0 
1 -119 38 0 
1 48 -120 0 
1 -4 -106 0 
1 -164 -155 0 
1 -34 -132 0 
1 41 -182 0 
1 92 40 0 
1 121 -186 0 
1 -105 102 0 
1 59 -2 0 
1 -119 -107 0 
1 184 127 0 
1 -106 -44 0 
1 -17 164 0 
1 -153 101 0 
1 -70 50 0 
1 12 197 0 
1 144 -19 0 
1 103 -73 0 
1 -178 164 0 
1 -19 42 0 
1 -50 5 0 
1 -52 129 0 
1 -195 183 0 
1 -192 135 0 
1 187 -35 0 
1 143 -133 0 
1 -1 -48 0 
1 -196 -117 0 
1 -109 140 0 
1 165 33 0 
1 -47 -115 0 
1 -172 -82 0 
